100 10
1
97 45 0 43 74 78 48 4 45 59 4 29 12 82 2 88 57 88 2 66 8 15 79 37 35 53 65 58 41 17 33 1 90 91 63 14 14 15 20 78 81 9 83 36 28 98 10 85 32 29 27 85 47 99 60 49 55 69 77 84 98 66 51 68 21 15 38 18 48 74 95 54 44 31 78 23 96 57 76 40 68 67 40 17 37 81 6 90 26 44 22 12 37 67 63 71 67 92 55 14
462 680 448 630 357 493 493 559 589 667
2 19 0 99 0 0 0 0 0 0 0 0 0 0 0 0 0 0 0 27 0 0 0 0 3 12 0 0 0 0 0 0 0 0 0 0 35 34 0 0 0 0 0 0 0 0 37 90 0 0 0 62 0 0 0 0 0 0 0 0 0 55 0 0 0 0 19 40 78 0 0 0 0 0 0 0 0 0 0 0 29 0 0 0 2 0 0 95 0 0 0 0 42 0 0 0 0 0 0 0
0 0 0 0 0 67 0 0 0 0 0 0 0 69 0 91 89 67 79 0 0 0 0 0 0 0 0 0 54 99 0 0 0 2 0 0 0 46 0 2 0 0 22 0 0 0 0 0 0 98 3 0 0 0 0 0 89 0 0 19 0 0 0 0 0 0 0 0 0 9 0 63 0 0 0 0 0 0 0 0 0 0 0 0 0 0 0 82 0 0 0 0 0 0 69 23 0 42 0 0
0 0 0 67 0 10 0 0 0 0 0 0 38 0 0 0 0 0 0 0 0 0 96 0 0 25 0 0 0 0 0 0 16 0 0 97 0 0 0 0 0 76 24 0 0 0 0 0 0 0 78 0 0 0 0 33 85 0 0 0 0 0 0 0 0 0 37 0 0 0 0 0 0 0 13 0 0 60 0 0 0 0 0 0 28 0 0 4 21 0 0 0 0 0 0 0 0 0 0 0
0 0 0 0 0 0 0 60 0 0 0 0 0 0 0 0 0 0 45 0 0 0 0 0 5 0 0 0 0 0 0 98 0 0 44 0 0 47 0 45 0 0 0 0 82 0 0 0 0 4 0 0 0 40 88 61 0 0 0 0 0 0 0 0 0 23 0 0 0 60 0 12 0 0 73 0 0 0 0 0 0 0 13 92 0 0 0 12 0 15 0 72 0 0 0 60 98 0 0 0
0 0 0 0 6 74 0 0 0 0 0 46 0 0 0 0 0 59 0 0 0 0 0 0 0 0 50 0 0 69 0 0 0 0 0 0 0 0 0 41 0 41 0 0 0 0 0 0 13 0 0 0 0 41 0 0 46 0 0 0 0 0 0 0 0 0 0 0 0 0 0 0 0 0 0 0 48 0 0 0 0 0 0 0 0 0 0 0 0 0 0 0 0 0 0 57 0 0 0 0
91 0 0 0 0 0 0 0 0 80 0 0 3 0 39 0 31 0 0 0 0 0 0 0 0 5 0 0 0 0 0 30 0 0 0 0 0 46 0 0 0 0 0 0 41 0 0 0 0 0 56 8 0 0 0 0 68 0 0 0 0 0 0 0 0 28 0 0 0 0 0 0 0 0 0 0 0 0 53 0 88 0 0 0 0 0 80 0 0 0 0 0 0 90 0 0 0 0 0 0
0 0 0 0 0 8 0 0 82 0 0 0 55 0 0 48 0 0 0 0 0 0 0 0 0 0 0 0 0 0 0 0 0 0 0 0 0 0 0 0 0 51 7 0 0 4 68 0 61 0 0 0 0 0 0 0 13 0 94 0 33 0 73 0 0 0 0 84 28 0 34 0 0 68 36 0 0 0 0 0 0 0 0 0 0 0 0 0 0 0 0 0 0 0 18 0 14 0 0 0
58 0 71 0 0 0 0 0 0 0 10 0 0 0 0 0 0 0 86 0 0 0 0 0 0 0 0 0 0 32 0 0 0 0 0 0 0 0 93 0 0 0 0 0 0 69 0 0 48 0 0 0 71 0 0 0 0 0 42 31 0 0 99 0 0 0 0 0 0 0 0 0 0 0 0 0 0 0 0 0 0 0 0 0 70 0 0 0 0 13 0 0 29 0 0 0 0 83 66 0
0 0 0 0 0 6 0 89 0 0 0 0 0 0 0 0 0 0 0 73 16 0 0 0 0 0 0 0 0 0 22 0 0 0 0 0 0 0 28 0 0 0 0 0 18 0 0 57 18 40 0 0 0 0 48 0 0 0 0 29 0 0 0 59 75 0 0 0 87 0 7 0 0 0 96 0 0 0 0 0 99 45 1 0 0 0 0 0 25 0 0 0 0 6 0 69 0 0 0 0
93 0 67 0 45 68 0 0 0 0 42 4 0 0 26 0 0 0 0 0 0 0 0 0 0 4 0 92 0 0 0 0 0 0 0 0 0 0 0 0 0 0 0 26 0 0 0 0 0 14 39 24 0 0 0 0 0 48 0 85 46 0 0 57 0 0 0 0 0 48 69 35 32 0 3 0 0 0 0 0 0 0 0 0 0 0 0 0 0 59 0 0 0 0 0 65 12 0 76 0
0 9 0 47 0 0 0 0 0 0 0 0 0 0 0 0 0 0 0 24 0 0 0 0 1 11 0 0 0 0 0 0 0 0 0 0 0 33 0 0 0 0 0 0 0 0 19 44 0 0 0 23 0 0 0 0 0 0 0 0 0 46 0 0 0 0 8 22 41 0 0 0 0 0 0 0 0 0 0 0 25 0 0 0 1 0 0 90 0 0 0 0 29 0 0 0 0 0 0 0
0 0 0 0 0 19 0 0 0 0 0 0 0 1 0 54 64 62 46 0 0 0 0 0 0 0 0 0 50 88 0 0 0 0 0 0 0 35 0 1 0 0 15 0 0 0 0 0 0 39 0 0 0 0 0 0 19 0 0 2 0 0 0 0 0 0 0 0 0 4 0 51 0 0 0 0 0 0 0 0 0 0 0 0 0 0 0 26 0 0 0 0 0 0 23 10 0 28 0 0
0 0 0 16 0 7 0 0 0 0 0 0 26 0 0 0 0 0 0 0 0 0 2 0 0 3 0 0 0 0 0 0 10 0 0 0 0 0 0 0 0 15 12 0 0 0 0 0 0 0 33 0 0 0 0 23 66 0 0 0 0 0 0 0 0 0 11 0 0 0 0 0 0 0 11 0 0 5 0 0 0 0 0 0 9 0 0 0 8 0 0 0 0 0 0 0 0 0 0 0
0 0 0 0 0 0 0 23 0 0 0 0 0 0 0 0 0 0 16 0 0 0 0 0 1 0 0 0 0 0 0 7 0 0 29 0 0 14 0 4 0 0 0 0 23 0 0 0 0 1 0 0 0 2 51 23 0 0 0 0 0 0 0 0 0 7 0 0 0 15 0 3 0 0 1 0 0 0 0 0 0 0 9 71 0 0 0 8 0 8 0 8 0 0 0 36 14 0 0 0
0 0 0 0 2 52 0 0 0 0 0 29 0 0 0 0 0 7 0 0 0 0 0 0 0 0 9 0 0 51 0 0 0 0 0 0 0 0 0 40 0 38 0 0 0 0 0 0 4 0 0 0 0 26 0 0 43 0 0 0 0 0 0 0 0 0 0 0 0 0 0 0 0 0 0 0 46 0 0 0 0 0 0 0 0 0 0 0 0 0 0 0 0 0 0 36 0 0 0 0
42 0 0 0 0 0 0 0 0 57 0 0 2 0 11 0 21 0 0 0 0 0 0 0 0 1 0 0 0 0 0 23 0 0 0 0 0 28 0 0 0 0 0 0 35 0 0 0 0 0 48 1 0 0 0 0 62 0 0 0 0 0 0 0 0 23 0 0 0 0 0 0 0 0 0 0 0 0 20 0 55 0 0 0 0 0 62 0 0 0 0 0 0 17 0 0 0 0 0 0
0 0 0 0 0 0 0 0 22 0 0 0 35 0 0 2 0 0 0 0 0 0 0 0 0 0 0 0 0 0 0 0 0 0 0 0 0 0 0 0 0 46 4 0 0 1 67 0 1 0 0 0 0 0 0 0 8 0 3 0 21 0 24 0 0 0 0 26 16 0 21 0 0 20 20 0 0 0 0 0 0 0 0 0 0 0 0 0 0 0 0 0 0 0 15 0 1 0 0 0
36 0 15 0 0 0 0 0 0 0 3 0 0 0 0 0 0 0 36 0 0 0 0 0 0 0 0 0 0 16 0 0 0 0 0 0 0 0 8 0 0 0 0 0 0 13 0 0 25 0 0 0 34 0 0 0 0 0 30 4 0 0 84 0 0 0 0 0 0 0 0 0 0 0 0 0 0 0 0 0 0 0 0 0 63 0 0 0 0 9 0 0 1 0 0 0 0 35 61 0
0 0 0 0 0 1 0 45 0 0 0 0 0 0 0 0 0 0 0 62 4 0 0 0 0 0 0 0 0 0 16 0 0 0 0 0 0 0 1 0 0 0 0 0 10 0 0 34 1 31 0 0 0 0 44 0 0 0 0 25 0 0 0 12 66 0 0 0 7 0 3 0 0 0 39 0 0 0 0 0 71 44 0 0 0 0 0 0 0 0 0 0 0 3 0 58 0 0 0 0
57 0 63 0 10 7 0 0 0 0 8 0 0 0 14 0 0 0 0 0 0 0 0 0 0 3 0 27 0 0 0 0 0 0 0 0 0 0 0 0 0 0 0 2 0 0 0 0 0 2 7 11 0 0 0 0 0 43 0 78 7 0 0 43 0 0 0 0 0 1 6 12 16 0 2 0 0 0 0 0 0 0 0 0 0 0 0 0 0 26 0 0 0 0 0 21 2 0 66 0
